problems/csplib-prob015/SchursLemma-models/noch/O0/minion/model_1_3-6-8-solution000001.eprime-solution
language ESSENCE' 1.0

letting boxes_PartitionAsSet_ExplicitR5_ExplicitVarSizeWithMarker_Marker be [1, 1, 1, 1, 1, 3; int(1..6)]
letting boxes_PartitionAsSet_ExplicitR5_ExplicitVarSizeWithMarker_Values be
        [[1, 1, 1, 1, 1, 1, 1, 1; int(1..8)], [2, 1, 1, 1, 1, 1, 1, 1; int(1..8)], [3, 1, 1, 1, 1, 1, 1, 1; int(1..8)],
         [4, 1, 1, 1, 1, 1, 1, 1; int(1..8)], [5, 1, 1, 1, 1, 1, 1, 1; int(1..8)], [6, 7, 8, 1, 1, 1, 1, 1; int(1..8)];
             int(1..6)]
